# Objective value = 5
x0,1_2 1
x0,1_16 0
x0,1_23 0
x0,1_31 0
x0,1_74 0
x0,2_2 0
x0,2_16 0
x0,2_23 0
x0,2_31 0
x0,2_74 0
x0,3_2 0
x0,3_16 0
x0,3_23 0
x0,3_31 0
x0,3_74 0
x0,4_2 0
x0,4_16 0
x0,4_23 0
x0,4_31 0
x0,4_74 0
x0,5_2 0
x0,5_16 0
x0,5_23 0
x0,5_31 0
x0,5_74 0
x1,2_2 0
x1,2_16 1
x1,2_23 0
x1,2_31 0
x1,2_74 0
x1,3_2 0
x1,3_16 0
x1,3_23 1
x1,3_31 0
x1,3_74 0
x1,4_2 0
x1,4_16 0
x1,4_23 0
x1,4_31 0
x1,4_74 0
x1,5_2 0
x1,5_16 0
x1,5_23 0
x1,5_31 0
x1,5_74 1
x2,3_2 0
x2,3_16 0
x2,3_23 0
x2,3_31 0
x2,3_74 0
x2,4_2 0
x2,4_16 0
x2,4_23 0
x2,4_31 0
x2,4_74 0
x2,5_2 0
x2,5_16 0
x2,5_23 0
x2,5_31 0
x2,5_74 0
x3,4_2 0
x3,4_16 0
x3,4_23 0
x3,4_31 0
x3,4_74 0
x3,5_2 0
x3,5_16 0
x3,5_23 0
x3,5_31 0
x3,5_74 0
x4,5_2 0
x4,5_16 0
x4,5_23 0
x4,5_31 1
x4,5_74 0
p0 0
p1 2
p2 18
p3 25
p4 45
p5 76
